DIMENSION :13
NODE_COORD_SECTION
1 -80.66858907800408 22.24170586905427
2 -59.45216334037053 94.93432673476784
3 -74.84971438245617 -57.19662785272783
4 -93.17968847603306 -30.03965619307985
5 29.83818368024373 23.353484242947232
6 -53.73382252596568 -51.71569727851995
7 -11.097987382576704 65.26313424821669
8 -43.38604026891091 37.621981648709635
9 11.53897437100018 -52.07888434394654
10 55.43921117581192 -74.84168801313677
11 -61.253508709724855 -20.845135313357048
12 39.58061189521561 8.915193522906705
13 26.03207432114681 -95.47459234110751
EOF
